@relation dataset

@attribute ID numeric
@attribute Time date 'yyyy/MM/dd HH:mm:ss:SSS'
@attribute 'Training round' numeric
@attribute inputs-1 numeric
@attribute inputs-2 numeric
@attribute inputs-3 numeric
@attribute inputs-4 numeric
@attribute inputs-5 numeric
@attribute inputs-6 numeric
@attribute outputs-1 numeric
@attribute outputs-2 numeric
@attribute outputs-3 numeric
@attribute outputs-4 numeric

@data
1,'2026/06/11 16:30:22:841',2,0.145019,0.516251,0.025501,0.014464,1,0.033534,0.14,0.54,0,0.1
2,'2026/06/11 16:30:22:889',2,0.145019,0.516251,0.025501,0.014464,1,0.033534,0.14,0.54,0,0.1
3,'2026/06/11 16:30:22:892',2,0.154118,0.519347,0.028438,0.010596,1,0.030107,0.14,0.54,0,0.1
4,'2026/06/11 16:30:22:893',2,0.154118,0.519347,0.028438,0.010596,1,0.030107,0.14,0.54,0,0.1
5,'2026/06/11 16:30:22:912',2,0.122955,0.524942,0.032998,0.020899,1,0.031785,0.14,0.54,0,0.1
6,'2026/06/11 16:30:22:913',2,0.122955,0.524942,0.032998,0.020899,1,0.031785,0.14,0.54,0,0.1
7,'2026/06/11 16:30:22:947',2,0.151139,0.515325,0.036116,0.023963,1,0.02311,0.14,0.54,0,0.1
8,'2026/06/11 16:30:22:947',2,0.151139,0.515325,0.036116,0.023963,1,0.02311,0.14,0.54,0,0.1
9,'2026/06/11 16:30:22:984',2,0.15646,0.53183,0.021855,0.011934,1,0.032075,0.14,0.54,0,0.1
10,'2026/06/11 16:30:22:986',2,0.15646,0.53183,0.021855,0.011934,1,0.032075,0.14,0.54,0,0.1
11,'2026/06/11 16:30:23:025',2,0.151057,0.551487,0.030725,0.029462,1,0.031041,0.14,0.54,0,0.1
12,'2026/06/11 16:30:23:026',2,0.151057,0.551487,0.030725,0.029462,1,0.031041,0.14,0.54,0,0.1
13,'2026/06/11 16:30:23:060',2,0.151859,0.545926,0.037234,0.021547,1,0.020916,0.14,0.54,0,0.1
14,'2026/06/11 16:30:23:061',2,0.151859,0.545926,0.037234,0.021547,1,0.020916,0.14,0.54,0,0.1
15,'2026/06/11 16:30:23:096',2,0.130204,0.529469,0.021596,0.014656,1,0.025559,0.14,0.54,0,0.1
16,'2026/06/11 16:30:23:097',2,0.130204,0.529469,0.021596,0.014656,1,0.025559,0.14,0.54,0,0.1
17,'2026/06/11 16:30:23:134',2,0.144885,0.533242,0.027404,0.01419,1,0.038733,0.14,0.54,0,0.1
18,'2026/06/11 16:30:23:135',2,0.144885,0.533242,0.027404,0.01419,1,0.038733,0.14,0.54,0,0.1
19,'2026/06/11 16:30:23:169',2,0.145329,0.545457,0.023423,0.024583,1,0.027589,0.14,0.54,0,0.1
20,'2026/06/11 16:30:23:169',2,0.145329,0.545457,0.023423,0.024583,1,0.027589,0.14,0.54,0,0.1
21,'2026/06/11 16:30:23:204',2,0.157623,0.547,0.031139,0.023692,1,0.03552,0.14,0.54,0,0.1
22,'2026/06/11 16:30:23:205',2,0.157623,0.547,0.031139,0.023692,1,0.03552,0.14,0.54,0,0.1
23,'2026/06/11 16:30:23:242',2,0.130246,0.516605,0.026309,0.015355,1,0.038858,0.14,0.54,0,0.1
24,'2026/06/11 16:30:23:242',2,0.130246,0.516605,0.026309,0.015355,1,0.038858,0.14,0.54,0,0.1
25,'2026/06/11 16:30:23:280',2,0.153549,0.530734,0.033109,0.017913,1,0.029177,0.14,0.54,0,0.1
26,'2026/06/11 16:30:23:281',2,0.153549,0.530734,0.033109,0.017913,1,0.029177,0.14,0.54,0,0.1
27,'2026/06/11 16:30:23:325',2,0.131536,0.527331,0.031227,0.015255,1,0.037956,0.14,0.54,0,0.1
28,'2026/06/11 16:30:23:327',2,0.131536,0.527331,0.031227,0.015255,1,0.037956,0.14,0.54,0,0.1
29,'2026/06/11 16:30:23:354',2,0.136378,0.525966,0.039951,0.020191,1,0.020942,0.14,0.54,0,0.1
30,'2026/06/11 16:30:23:355',2,0.136378,0.525966,0.039951,0.020191,1,0.020942,0.14,0.54,0,0.1
31,'2026/06/11 16:30:23:392',2,0.125947,0.546372,0.035842,0.018443,1,0.027632,0.14,0.54,0,0.1
32,'2026/06/11 16:30:23:393',2,0.125947,0.546372,0.035842,0.018443,1,0.027632,0.14,0.54,0,0.1
33,'2026/06/11 16:30:23:429',2,0.15786,0.541456,0.039422,0.027216,1,0.034414,0.14,0.54,0,0.1
34,'2026/06/11 16:30:23:436',2,0.15786,0.541456,0.039422,0.027216,1,0.034414,0.14,0.54,0,0.1
35,'2026/06/11 16:30:23:465',2,0.146542,0.541849,0.025337,0.022819,1,0.028695,0.14,0.54,0,0.1
36,'2026/06/11 16:30:23:466',2,0.146542,0.541849,0.025337,0.022819,1,0.028695,0.14,0.54,0,0.1
37,'2026/06/11 16:30:23:515',2,0.138334,0.562691,0.037517,0.015268,1,0.023573,0.14,0.54,0,0.1
38,'2026/06/11 16:30:23:516',2,0.138334,0.562691,0.037517,0.015268,1,0.023573,0.14,0.54,0,0.1
39,'2026/06/11 16:30:23:546',2,0.154855,0.558526,0.025969,0.022779,1,0.023057,0.14,0.54,0,0.1
40,'2026/06/11 16:30:23:555',2,0.154855,0.558526,0.025969,0.022779,1,0.023057,0.14,0.54,0,0.1
41,'2026/06/11 16:30:23:590',2,0.14945,0.541969,0.035573,0.020607,1,0.026483,0.14,0.54,0,0.1
42,'2026/06/11 16:30:23:590',2,0.14945,0.541969,0.035573,0.020607,1,0.026483,0.14,0.54,0,0.1
43,'2026/06/11 16:30:23:635',2,0.122701,0.561455,0.037574,0.026633,1,0.021159,0.14,0.54,0,0.1
44,'2026/06/11 16:30:23:637',2,0.122701,0.561455,0.037574,0.026633,1,0.021159,0.14,0.54,0,0.1
45,'2026/06/11 16:30:23:672',2,0.153608,0.562347,0.021713,0.01972,1,0.035212,0.14,0.54,0,0.1
46,'2026/06/11 16:30:23:673',2,0.153608,0.562347,0.021713,0.01972,1,0.035212,0.14,0.54,0,0.1
47,'2026/06/11 16:30:23:705',2,0.14957,0.52142,0.029506,0.020996,1,0.037449,0.14,0.54,0,0.1
48,'2026/06/11 16:30:23:706',2,0.14957,0.52142,0.029506,0.020996,1,0.037449,0.14,0.54,0,0.1
49,'2026/06/11 16:30:23:744',2,0.137233,0.52559,0.030786,0.024599,1,0.026234,0.14,0.54,0,0.1
50,'2026/06/11 16:30:23:745',2,0.137233,0.52559,0.030786,0.024599,1,0.026234,0.14,0.54,0,0.1
51,'2026/06/11 16:30:23:782',2,0.157825,0.547494,0.028762,0.020352,1,0.024494,0.14,0.54,0,0.1
52,'2026/06/11 16:30:23:782',2,0.157825,0.547494,0.028762,0.020352,1,0.024494,0.14,0.54,0,0.1
53,'2026/06/11 16:30:23:821',2,0.134171,0.544415,0.024602,0.014404,1,0.032622,0.14,0.54,0,0.1
54,'2026/06/11 16:30:23:822',2,0.134171,0.544415,0.024602,0.014404,1,0.032622,0.14,0.54,0,0.1
55,'2026/06/11 16:30:23:858',2,0.130242,0.560271,0.037193,0.011417,1,0.03338,0.14,0.54,0,0.1
56,'2026/06/11 16:30:23:859',2,0.130242,0.560271,0.037193,0.011417,1,0.03338,0.14,0.54,0,0.1
57,'2026/06/11 16:30:23:894',2,0.129713,0.521616,0.03871,0.021421,1,0.035692,0.14,0.54,0,0.1
58,'2026/06/11 16:30:23:902',2,0.129713,0.521616,0.03871,0.021421,1,0.035692,0.14,0.54,0,0.1
59,'2026/06/11 16:30:23:933',2,0.15107,0.524521,0.021939,0.018621,1,0.02934,0.14,0.54,0,0.1
60,'2026/06/11 16:30:23:933',2,0.15107,0.524521,0.021939,0.018621,1,0.02934,0.14,0.54,0,0.1
61,'2026/06/11 16:30:23:972',2,0.148247,0.548668,0.039683,0.011968,1,0.026786,0.14,0.54,0,0.1
62,'2026/06/11 16:30:23:973',2,0.148247,0.548668,0.039683,0.011968,1,0.026786,0.14,0.54,0,0.1
63,'2026/06/11 16:30:24:008',2,0.15302,0.527433,0.023804,0.018972,1,0.025571,0.14,0.54,0,0.1
64,'2026/06/11 16:30:24:010',2,0.15302,0.527433,0.023804,0.018972,1,0.025571,0.14,0.54,0,0.1
65,'2026/06/11 16:30:24:047',2,0.130993,0.561163,0.028863,0.027227,1,0.021012,0.14,0.54,0,0.1
66,'2026/06/11 16:30:24:048',2,0.130993,0.561163,0.028863,0.027227,1,0.021012,0.14,0.54,0,0.1
67,'2026/06/11 16:30:24:081',2,0.157974,0.556801,0.03938,0.028527,1,0.023326,0.14,0.54,0,0.1
68,'2026/06/11 16:30:24:082',2,0.157974,0.556801,0.03938,0.028527,1,0.023326,0.14,0.54,0,0.1
69,'2026/06/11 16:30:24:783',4,0.499483,0.585687,0.028021,0.011173,1,0.039706,0.5,0.6,0,0.18
70,'2026/06/11 16:30:24:787',4,0.499483,0.585687,0.028021,0.011173,1,0.039706,0.5,0.6,0,0.18
71,'2026/06/11 16:30:24:823',4,0.491547,0.614204,0.0291,0.01846,1,0.039908,0.5,0.6,0,0.18
72,'2026/06/11 16:30:24:826',4,0.491547,0.614204,0.0291,0.01846,1,0.039908,0.5,0.6,0,0.18
73,'2026/06/11 16:30:24:862',4,0.502008,0.61092,0.023096,0.015934,1,0.031584,0.5,0.6,0,0.18
74,'2026/06/11 16:30:24:863',4,0.502008,0.61092,0.023096,0.015934,1,0.031584,0.5,0.6,0,0.18
75,'2026/06/11 16:30:24:898',4,0.501519,0.612399,0.021143,0.021684,1,0.037054,0.5,0.6,0,0.18
76,'2026/06/11 16:30:24:902',4,0.501519,0.612399,0.021143,0.021684,1,0.037054,0.5,0.6,0,0.18
77,'2026/06/11 16:30:24:937',4,0.487668,0.623039,0.021602,0.013716,1,0.033504,0.5,0.6,0,0.18
78,'2026/06/11 16:30:24:941',4,0.487668,0.623039,0.021602,0.013716,1,0.033504,0.5,0.6,0,0.18
79,'2026/06/11 16:30:24:974',4,0.490467,0.580994,0.037806,0.014924,1,0.032388,0.5,0.6,0,0.18
80,'2026/06/11 16:30:24:975',4,0.490467,0.580994,0.037806,0.014924,1,0.032388,0.5,0.6,0,0.18
81,'2026/06/11 16:30:25:019',4,0.497092,0.604184,0.030456,0.028694,1,0.034324,0.5,0.6,0,0.18
82,'2026/06/11 16:30:25:023',4,0.497092,0.604184,0.030456,0.028694,1,0.034324,0.5,0.6,0,0.18
83,'2026/06/11 16:30:25:052',4,0.490593,0.594789,0.033434,0.016,1,0.035037,0.5,0.6,0,0.18
84,'2026/06/11 16:30:25:053',4,0.490593,0.594789,0.033434,0.016,1,0.035037,0.5,0.6,0,0.18
85,'2026/06/11 16:30:25:088',4,0.484612,0.597914,0.039969,0.029922,1,0.024263,0.5,0.6,0,0.18
86,'2026/06/11 16:30:25:089',4,0.484612,0.597914,0.039969,0.029922,1,0.024263,0.5,0.6,0,0.18
87,'2026/06/11 16:30:25:123',4,0.491547,0.621663,0.037617,0.027585,1,0.023155,0.5,0.6,0,0.18
88,'2026/06/11 16:30:25:128',4,0.491547,0.621663,0.037617,0.027585,1,0.023155,0.5,0.6,0,0.18
89,'2026/06/11 16:30:25:160',4,0.512015,0.610177,0.032234,0.029745,1,0.020156,0.5,0.6,0,0.18
90,'2026/06/11 16:30:25:163',4,0.512015,0.610177,0.032234,0.029745,1,0.020156,0.5,0.6,0,0.18
91,'2026/06/11 16:30:25:197',4,0.511416,0.589969,0.033268,0.028779,1,0.022309,0.5,0.6,0,0.18
92,'2026/06/11 16:30:25:201',4,0.511416,0.589969,0.033268,0.028779,1,0.022309,0.5,0.6,0,0.18
93,'2026/06/11 16:30:25:238',4,0.485853,0.602661,0.025447,0.022097,1,0.024072,0.5,0.6,0,0.18
94,'2026/06/11 16:30:25:249',4,0.485853,0.602661,0.025447,0.022097,1,0.024072,0.5,0.6,0,0.18
95,'2026/06/11 16:30:25:275',4,0.504833,0.588199,0.029771,0.028107,1,0.021846,0.5,0.6,0,0.18
96,'2026/06/11 16:30:25:278',4,0.504833,0.588199,0.029771,0.028107,1,0.021846,0.5,0.6,0,0.18
97,'2026/06/11 16:30:25:316',4,0.497249,0.588834,0.020071,0.025422,1,0.025239,0.5,0.6,0,0.18
98,'2026/06/11 16:30:25:327',4,0.497249,0.588834,0.020071,0.025422,1,0.025239,0.5,0.6,0,0.18
99,'2026/06/11 16:30:25:352',4,0.508684,0.602584,0.028554,0.010193,1,0.037662,0.5,0.6,0,0.18
100,'2026/06/11 16:30:25:352',4,0.508684,0.602584,0.028554,0.010193,1,0.037662,0.5,0.6,0,0.18
101,'2026/06/11 16:30:25:387',4,0.514541,0.60228,0.036692,0.02165,1,0.022549,0.5,0.6,0,0.18
102,'2026/06/11 16:30:25:388',4,0.514541,0.60228,0.036692,0.02165,1,0.022549,0.5,0.6,0,0.18
103,'2026/06/11 16:30:25:424',4,0.493097,0.619949,0.035922,0.027214,1,0.024202,0.5,0.6,0,0.18
104,'2026/06/11 16:30:25:425',4,0.493097,0.619949,0.035922,0.027214,1,0.024202,0.5,0.6,0,0.18
105,'2026/06/11 16:30:25:459',4,0.490983,0.58014,0.035602,0.027683,1,0.032413,0.5,0.6,0,0.18
106,'2026/06/11 16:30:25:460',4,0.490983,0.58014,0.035602,0.027683,1,0.032413,0.5,0.6,0,0.18
107,'2026/06/11 16:30:25:496',4,0.487564,0.621494,0.037292,0.029524,1,0.037628,0.5,0.6,0,0.18
108,'2026/06/11 16:30:25:497',4,0.487564,0.621494,0.037292,0.029524,1,0.037628,0.5,0.6,0,0.18
109,'2026/06/11 16:30:25:533',4,0.482892,0.611828,0.026644,0.028616,1,0.037281,0.5,0.6,0,0.18
110,'2026/06/11 16:30:25:534',4,0.482892,0.611828,0.026644,0.028616,1,0.037281,0.5,0.6,0,0.18
111,'2026/06/11 16:30:25:572',4,0.511187,0.58834,0.035747,0.012162,1,0.037172,0.5,0.6,0,0.18
112,'2026/06/11 16:30:25:574',4,0.511187,0.58834,0.035747,0.012162,1,0.037172,0.5,0.6,0,0.18
113,'2026/06/11 16:30:25:608',4,0.490008,0.615829,0.029206,0.016104,1,0.024552,0.5,0.6,0,0.18
114,'2026/06/11 16:30:25:610',4,0.490008,0.615829,0.029206,0.016104,1,0.024552,0.5,0.6,0,0.18
115,'2026/06/11 16:30:25:645',4,0.482852,0.584656,0.026565,0.027287,1,0.025582,0.5,0.6,0,0.18
116,'2026/06/11 16:30:25:646',4,0.482852,0.584656,0.026565,0.027287,1,0.025582,0.5,0.6,0,0.18
117,'2026/06/11 16:30:25:680',4,0.505093,0.594984,0.039623,0.020724,1,0.022307,0.5,0.6,0,0.18
118,'2026/06/11 16:30:25:682',4,0.505093,0.594984,0.039623,0.020724,1,0.022307,0.5,0.6,0,0.18
119,'2026/06/11 16:30:25:718',4,0.516934,0.583928,0.039251,0.015309,1,0.028691,0.5,0.6,0,0.18
120,'2026/06/11 16:30:25:719',4,0.516934,0.583928,0.039251,0.015309,1,0.028691,0.5,0.6,0,0.18
121,'2026/06/11 16:30:25:757',4,0.508228,0.590684,0.032124,0.020228,1,0.031532,0.5,0.6,0,0.18
122,'2026/06/11 16:30:25:758',4,0.508228,0.590684,0.032124,0.020228,1,0.031532,0.5,0.6,0,0.18
123,'2026/06/11 16:30:25:792',4,0.49117,0.610439,0.020034,0.028512,1,0.034389,0.5,0.6,0,0.18
124,'2026/06/11 16:30:25:793',4,0.49117,0.610439,0.020034,0.028512,1,0.034389,0.5,0.6,0,0.18
125,'2026/06/11 16:30:25:830',4,0.50871,0.608531,0.027284,0.011399,1,0.026604,0.5,0.6,0,0.18
126,'2026/06/11 16:30:25:831',4,0.50871,0.608531,0.027284,0.011399,1,0.026604,0.5,0.6,0,0.18
127,'2026/06/11 16:30:25:869',4,0.493301,0.617401,0.034395,0.016006,1,0.028168,0.5,0.6,0,0.18
128,'2026/06/11 16:30:25:870',4,0.493301,0.617401,0.034395,0.016006,1,0.028168,0.5,0.6,0,0.18
129,'2026/06/11 16:30:25:907',4,0.496486,0.589783,0.022546,0.018409,1,0.033546,0.5,0.6,0,0.18
130,'2026/06/11 16:30:25:910',4,0.496486,0.589783,0.022546,0.018409,1,0.033546,0.5,0.6,0,0.18
131,'2026/06/11 16:30:25:945',4,0.514501,0.605776,0.026019,0.020959,1,0.025738,0.5,0.6,0,0.18
132,'2026/06/11 16:30:25:946',4,0.514501,0.605776,0.026019,0.020959,1,0.025738,0.5,0.6,0,0.18
133,'2026/06/11 16:30:25:979',4,0.497476,0.603999,0.033094,0.0193,1,0.024274,0.5,0.6,0,0.18
134,'2026/06/11 16:30:25:987',4,0.497476,0.603999,0.033094,0.0193,1,0.024274,0.5,0.6,0,0.18
135,'2026/06/11 16:30:26:020',4,0.499035,0.620059,0.03592,0.013394,1,0.030309,0.5,0.6,0,0.18
136,'2026/06/11 16:30:26:020',4,0.499035,0.620059,0.03592,0.013394,1,0.030309,0.5,0.6,0,0.18
137,'2026/06/11 16:30:26:717',6,0.864786,0.591759,0.036368,0.025023,1,0.024493,0.86,0.6,0,0.25
138,'2026/06/11 16:30:26:718',6,0.864786,0.591759,0.036368,0.025023,1,0.024493,0.86,0.6,0,0.25
139,'2026/06/11 16:30:26:754',6,0.849169,0.576221,0.024897,0.019503,1,0.021457,0.86,0.6,0,0.25
140,'2026/06/11 16:30:26:754',6,0.849169,0.576221,0.024897,0.019503,1,0.021457,0.86,0.6,0,0.25
141,'2026/06/11 16:30:26:789',6,0.85692,0.606488,0.023889,0.023927,1,0.02488,0.86,0.6,0,0.25
142,'2026/06/11 16:30:26:789',6,0.85692,0.606488,0.023889,0.023927,1,0.02488,0.86,0.6,0,0.25
143,'2026/06/11 16:30:26:824',6,0.865618,0.575277,0.035019,0.025401,1,0.028503,0.86,0.6,0,0.25
144,'2026/06/11 16:30:26:824',6,0.865618,0.575277,0.035019,0.025401,1,0.028503,0.86,0.6,0,0.25
145,'2026/06/11 16:30:26:863',6,0.848332,0.622898,0.030359,0.011004,1,0.036967,0.86,0.6,0,0.25
146,'2026/06/11 16:30:26:864',6,0.848332,0.622898,0.030359,0.011004,1,0.036967,0.86,0.6,0,0.25
147,'2026/06/11 16:30:26:898',6,0.858433,0.615071,0.033352,0.029758,1,0.039001,0.86,0.6,0,0.25
148,'2026/06/11 16:30:26:900',6,0.858433,0.615071,0.033352,0.029758,1,0.039001,0.86,0.6,0,0.25
149,'2026/06/11 16:30:26:935',6,0.874091,0.605633,0.034385,0.020096,1,0.030957,0.86,0.6,0,0.25
150,'2026/06/11 16:30:26:936',6,0.874091,0.605633,0.034385,0.020096,1,0.030957,0.86,0.6,0,0.25
151,'2026/06/11 16:30:26:972',6,0.874299,0.612183,0.029493,0.015184,1,0.032753,0.86,0.6,0,0.25
152,'2026/06/11 16:30:26:973',6,0.874299,0.612183,0.029493,0.015184,1,0.032753,0.86,0.6,0,0.25
153,'2026/06/11 16:30:27:010',6,0.869569,0.601065,0.032535,0.015492,1,0.025715,0.86,0.6,0,0.25
154,'2026/06/11 16:30:27:014',6,0.869569,0.601065,0.032535,0.015492,1,0.025715,0.86,0.6,0,0.25
155,'2026/06/11 16:30:27:044',6,0.851782,0.590985,0.030803,0.012767,1,0.033879,0.86,0.6,0,0.25
156,'2026/06/11 16:30:27:045',6,0.851782,0.590985,0.030803,0.012767,1,0.033879,0.86,0.6,0,0.25
157,'2026/06/11 16:30:27:082',6,0.867431,0.578211,0.028152,0.020852,1,0.024137,0.86,0.6,0,0.25
158,'2026/06/11 16:30:27:083',6,0.867431,0.578211,0.028152,0.020852,1,0.024137,0.86,0.6,0,0.25
159,'2026/06/11 16:30:27:120',6,0.857125,0.620242,0.031682,0.02391,1,0.035312,0.86,0.6,0,0.25
160,'2026/06/11 16:30:27:126',6,0.857125,0.620242,0.031682,0.02391,1,0.035312,0.86,0.6,0,0.25
161,'2026/06/11 16:30:27:158',6,0.855694,0.575295,0.027035,0.02507,1,0.039069,0.86,0.6,0,0.25
162,'2026/06/11 16:30:27:160',6,0.855694,0.575295,0.027035,0.02507,1,0.039069,0.86,0.6,0,0.25
163,'2026/06/11 16:30:27:195',6,0.857085,0.612376,0.030923,0.022065,1,0.024388,0.86,0.6,0,0.25
164,'2026/06/11 16:30:27:195',6,0.857085,0.612376,0.030923,0.022065,1,0.024388,0.86,0.6,0,0.25
165,'2026/06/11 16:30:27:231',6,0.85769,0.576451,0.026723,0.023583,1,0.023301,0.86,0.6,0,0.25
166,'2026/06/11 16:30:27:231',6,0.85769,0.576451,0.026723,0.023583,1,0.023301,0.86,0.6,0,0.25
167,'2026/06/11 16:30:27:271',6,0.858826,0.581381,0.032445,0.010539,1,0.031288,0.86,0.6,0,0.25
168,'2026/06/11 16:30:27:272',6,0.858826,0.581381,0.032445,0.010539,1,0.031288,0.86,0.6,0,0.25
169,'2026/06/11 16:30:27:309',6,0.842976,0.607138,0.022714,0.019234,1,0.027582,0.86,0.6,0,0.25
170,'2026/06/11 16:30:27:310',6,0.842976,0.607138,0.022714,0.019234,1,0.027582,0.86,0.6,0,0.25
171,'2026/06/11 16:30:27:349',6,0.84962,0.591342,0.035225,0.017583,1,0.036638,0.86,0.6,0,0.25
172,'2026/06/11 16:30:27:350',6,0.84962,0.591342,0.035225,0.017583,1,0.036638,0.86,0.6,0,0.25
173,'2026/06/11 16:30:27:387',6,0.851082,0.579095,0.020388,0.020788,1,0.026999,0.86,0.6,0,0.25
174,'2026/06/11 16:30:27:388',6,0.851082,0.579095,0.020388,0.020788,1,0.026999,0.86,0.6,0,0.25
175,'2026/06/11 16:30:27:430',6,0.865405,0.614062,0.033035,0.025085,1,0.023987,0.86,0.6,0,0.25
176,'2026/06/11 16:30:27:430',6,0.865405,0.614062,0.033035,0.025085,1,0.023987,0.86,0.6,0,0.25
177,'2026/06/11 16:30:27:465',6,0.842734,0.582619,0.022524,0.023389,1,0.024359,0.86,0.6,0,0.25
178,'2026/06/11 16:30:27:465',6,0.842734,0.582619,0.022524,0.023389,1,0.024359,0.86,0.6,0,0.25
179,'2026/06/11 16:30:27:504',6,0.867181,0.613345,0.023356,0.022145,1,0.022291,0.86,0.6,0,0.25
180,'2026/06/11 16:30:27:505',6,0.867181,0.613345,0.023356,0.022145,1,0.022291,0.86,0.6,0,0.25
181,'2026/06/11 16:30:27:539',6,0.871495,0.623236,0.022162,0.010514,1,0.033547,0.86,0.6,0,0.25
182,'2026/06/11 16:30:27:540',6,0.871495,0.623236,0.022162,0.010514,1,0.033547,0.86,0.6,0,0.25
183,'2026/06/11 16:30:27:577',6,0.876494,0.594833,0.0343,0.01152,1,0.032545,0.86,0.6,0,0.25
184,'2026/06/11 16:30:27:578',6,0.876494,0.594833,0.0343,0.01152,1,0.032545,0.86,0.6,0,0.25
185,'2026/06/11 16:30:27:611',6,0.845668,0.613624,0.037006,0.022008,1,0.039677,0.86,0.6,0,0.25
186,'2026/06/11 16:30:27:613',6,0.845668,0.613624,0.037006,0.022008,1,0.039677,0.86,0.6,0,0.25
187,'2026/06/11 16:30:27:648',6,0.870175,0.59236,0.028568,0.017411,1,0.026825,0.86,0.6,0,0.25
188,'2026/06/11 16:30:27:650',6,0.870175,0.59236,0.028568,0.017411,1,0.026825,0.86,0.6,0,0.25
189,'2026/06/11 16:30:27:685',6,0.872585,0.616117,0.022111,0.029216,1,0.036574,0.86,0.6,0,0.25
190,'2026/06/11 16:30:27:686',6,0.872585,0.616117,0.022111,0.029216,1,0.036574,0.86,0.6,0,0.25
191,'2026/06/11 16:30:27:723',6,0.867463,0.596774,0.034676,0.029309,1,0.036164,0.86,0.6,0,0.25
192,'2026/06/11 16:30:27:729',6,0.867463,0.596774,0.034676,0.029309,1,0.036164,0.86,0.6,0,0.25
193,'2026/06/11 16:30:27:761',6,0.861374,0.599175,0.028711,0.024621,1,0.037034,0.86,0.6,0,0.25
194,'2026/06/11 16:30:27:766',6,0.861374,0.599175,0.028711,0.024621,1,0.037034,0.86,0.6,0,0.25
195,'2026/06/11 16:30:27:796',6,0.871906,0.579333,0.037633,0.014877,1,0.032207,0.86,0.6,0,0.25
196,'2026/06/11 16:30:27:796',6,0.871906,0.579333,0.037633,0.014877,1,0.032207,0.86,0.6,0,0.25
197,'2026/06/11 16:30:27:834',6,0.855644,0.576435,0.037019,0.013637,1,0.035957,0.86,0.6,0,0.25
198,'2026/06/11 16:30:27:836',6,0.855644,0.576435,0.037019,0.013637,1,0.035957,0.86,0.6,0,0.25
199,'2026/06/11 16:30:27:873',6,0.854252,0.619016,0.034024,0.015525,1,0.038961,0.86,0.6,0,0.25
200,'2026/06/11 16:30:27:874',6,0.854252,0.619016,0.034024,0.015525,1,0.038961,0.86,0.6,0,0.25
201,'2026/06/11 16:30:27:913',6,0.845082,0.611004,0.029772,0.025163,1,0.032918,0.86,0.6,0,0.25
202,'2026/06/11 16:30:27:916',6,0.845082,0.611004,0.029772,0.025163,1,0.032918,0.86,0.6,0,0.25
203,'2026/06/11 16:30:27:947',6,0.85967,0.614647,0.021861,0.014432,1,0.026124,0.86,0.6,0,0.25
204,'2026/06/11 16:30:27:948',6,0.85967,0.614647,0.021861,0.014432,1,0.026124,0.86,0.6,0,0.25
205,'2026/06/11 16:30:28:643',8,0.503262,0.039037,0.020618,0.01851,1,0.036616,0.5,0,0,0
206,'2026/06/11 16:30:28:644',8,0.503262,0.039037,0.020618,0.01851,1,0.036616,0.5,0,0,0
207,'2026/06/11 16:30:28:680',8,0.508114,0.031753,0.015028,0.012413,1,0.032391,0.5,0,0,0
208,'2026/06/11 16:30:28:681',8,0.508114,0.031753,0.015028,0.012413,1,0.032391,0.5,0,0,0
209,'2026/06/11 16:30:28:717',8,0.501435,0.049439,0.013703,0.014328,1,0.044492,0.5,0,0,0
210,'2026/06/11 16:30:28:720',8,0.501435,0.049439,0.013703,0.014328,1,0.044492,0.5,0,0,0
211,'2026/06/11 16:30:28:754',8,0.519064,0.040887,0.01566,0.012011,1,0.03455,0.5,0,0,0
212,'2026/06/11 16:30:28:755',8,0.519064,0.040887,0.01566,0.012011,1,0.03455,0.5,0,0,0
213,'2026/06/11 16:30:28:788',8,0.487178,0.022509,0.020683,0.015486,1,0.041067,0.5,0,0,0
214,'2026/06/11 16:30:28:789',8,0.487178,0.022509,0.020683,0.015486,1,0.041067,0.5,0,0,0
215,'2026/06/11 16:30:28:827',8,0.507897,0.026546,0.027369,0.019818,1,0.041481,0.5,0,0,0
216,'2026/06/11 16:30:28:830',8,0.507897,0.026546,0.027369,0.019818,1,0.041481,0.5,0,0,0
217,'2026/06/11 16:30:28:863',8,0.498776,0.037857,0.013687,0.011028,1,0.039555,0.5,0,0,0
218,'2026/06/11 16:30:28:865',8,0.498776,0.037857,0.013687,0.011028,1,0.039555,0.5,0,0,0
219,'2026/06/11 16:30:28:897',8,0.512885,0.036425,0.011482,0.022589,1,0.032984,0.5,0,0,0
220,'2026/06/11 16:30:28:899',8,0.512885,0.036425,0.011482,0.022589,1,0.032984,0.5,0,0,0
221,'2026/06/11 16:30:28:931',8,0.502514,0.032938,0.029878,0.012369,1,0.042126,0.5,0,0,0
222,'2026/06/11 16:30:28:935',8,0.502514,0.032938,0.029878,0.012369,1,0.042126,0.5,0,0,0
223,'2026/06/11 16:30:28:966',8,0.51163,0.030125,0.020451,0.01901,1,0.047203,0.5,0,0,0
224,'2026/06/11 16:30:28:967',8,0.51163,0.030125,0.020451,0.01901,1,0.047203,0.5,0,0,0
225,'2026/06/11 16:30:29:008',8,0.519601,0.032994,0.022421,0.022193,1,0.048952,0.5,0,0,0
226,'2026/06/11 16:30:29:009',8,0.519601,0.032994,0.022421,0.022193,1,0.048952,0.5,0,0,0
227,'2026/06/11 16:30:29:041',8,0.488312,0.029597,0.023209,0.013141,1,0.031501,0.5,0,0,0
228,'2026/06/11 16:30:29:042',8,0.488312,0.029597,0.023209,0.013141,1,0.031501,0.5,0,0,0
229,'2026/06/11 16:30:29:077',8,0.480107,0.038218,0.021876,0.015825,1,0.044139,0.5,0,0,0
230,'2026/06/11 16:30:29:078',8,0.480107,0.038218,0.021876,0.015825,1,0.044139,0.5,0,0,0
231,'2026/06/11 16:30:29:113',8,0.50812,0.038345,0.023748,0.028478,1,0.042501,0.5,0,0,0
232,'2026/06/11 16:30:29:115',8,0.50812,0.038345,0.023748,0.028478,1,0.042501,0.5,0,0,0
233,'2026/06/11 16:30:29:152',8,0.506447,0.055612,0.018503,0.020891,1,0.048168,0.5,0,0,0
234,'2026/06/11 16:30:29:153',8,0.506447,0.055612,0.018503,0.020891,1,0.048168,0.5,0,0,0
235,'2026/06/11 16:30:29:192',8,0.513065,0.024571,0.013318,0.016152,1,0.041384,0.5,0,0,0
236,'2026/06/11 16:30:29:192',8,0.513065,0.024571,0.013318,0.016152,1,0.041384,0.5,0,0,0
237,'2026/06/11 16:30:29:228',8,0.491544,0.026477,0.023774,0.023995,1,0.040009,0.5,0,0,0
238,'2026/06/11 16:30:29:229',8,0.491544,0.026477,0.023774,0.023995,1,0.040009,0.5,0,0,0
239,'2026/06/11 16:30:29:266',8,0.499752,0.024896,0.010797,0.018641,1,0.035007,0.5,0,0,0
240,'2026/06/11 16:30:29:267',8,0.499752,0.024896,0.010797,0.018641,1,0.035007,0.5,0,0,0
241,'2026/06/11 16:30:29:307',8,0.483653,0.056629,0.026719,0.021504,1,0.049991,0.5,0,0,0
242,'2026/06/11 16:30:29:309',8,0.483653,0.056629,0.026719,0.021504,1,0.049991,0.5,0,0,0
243,'2026/06/11 16:30:29:349',8,0.506891,0.031702,0.010805,0.025125,1,0.04303,0.5,0,0,0
244,'2026/06/11 16:30:29:349',8,0.506891,0.031702,0.010805,0.025125,1,0.04303,0.5,0,0,0
245,'2026/06/11 16:30:29:378',8,0.516643,0.028534,0.021707,0.022696,1,0.031825,0.5,0,0,0
246,'2026/06/11 16:30:29:379',8,0.516643,0.028534,0.021707,0.022696,1,0.031825,0.5,0,0,0
247,'2026/06/11 16:30:29:438',8,0.493918,0.033999,0.023403,0.027155,1,0.043873,0.5,0,0,0
248,'2026/06/11 16:30:29:439',8,0.493918,0.033999,0.023403,0.027155,1,0.043873,0.5,0,0,0
249,'2026/06/11 16:30:29:471',8,0.491529,0.056027,0.026271,0.021002,1,0.03629,0.5,0,0,0
250,'2026/06/11 16:30:29:471',8,0.491529,0.056027,0.026271,0.021002,1,0.03629,0.5,0,0,0
251,'2026/06/11 16:30:29:509',8,0.492931,0.056927,0.018084,0.020292,1,0.043153,0.5,0,0,0
252,'2026/06/11 16:30:29:510',8,0.492931,0.056927,0.018084,0.020292,1,0.043153,0.5,0,0,0
253,'2026/06/11 16:30:29:546',8,0.501704,0.036877,0.013752,0.017236,1,0.042508,0.5,0,0,0
254,'2026/06/11 16:30:29:549',8,0.501704,0.036877,0.013752,0.017236,1,0.042508,0.5,0,0,0
255,'2026/06/11 16:30:29:597',8,0.5104,0.029328,0.020984,0.028553,1,0.043965,0.5,0,0,0
256,'2026/06/11 16:30:29:598',8,0.5104,0.029328,0.020984,0.028553,1,0.043965,0.5,0,0,0
257,'2026/06/11 16:30:29:631',8,0.484857,0.057033,0.022177,0.014786,1,0.041017,0.5,0,0,0
258,'2026/06/11 16:30:29:646',8,0.484857,0.057033,0.022177,0.014786,1,0.041017,0.5,0,0,0
259,'2026/06/11 16:30:29:677',8,0.50209,0.025356,0.029845,0.028259,1,0.032349,0.5,0,0,0
260,'2026/06/11 16:30:29:678',8,0.50209,0.025356,0.029845,0.028259,1,0.032349,0.5,0,0,0
261,'2026/06/11 16:30:29:712',8,0.513286,0.039942,0.024332,0.020177,1,0.046694,0.5,0,0,0
262,'2026/06/11 16:30:29:714',8,0.513286,0.039942,0.024332,0.020177,1,0.046694,0.5,0,0,0
263,'2026/06/11 16:30:29:755',8,0.51921,0.030774,0.021025,0.017672,1,0.040165,0.5,0,0,0
264,'2026/06/11 16:30:29:758',8,0.51921,0.030774,0.021025,0.017672,1,0.040165,0.5,0,0,0
265,'2026/06/11 16:30:29:791',8,0.515173,0.053105,0.015525,0.0258,1,0.048685,0.5,0,0,0
266,'2026/06/11 16:30:29:792',8,0.515173,0.053105,0.015525,0.0258,1,0.048685,0.5,0,0,0
267,'2026/06/11 16:30:29:829',8,0.50031,0.05154,0.015657,0.015971,1,0.049978,0.5,0,0,0
268,'2026/06/11 16:30:29:829',8,0.50031,0.05154,0.015657,0.015971,1,0.049978,0.5,0,0,0
269,'2026/06/11 16:30:29:866',8,0.499586,0.027349,0.020772,0.016902,1,0.040869,0.5,0,0,0
270,'2026/06/11 16:30:29:867',8,0.499586,0.027349,0.020772,0.016902,1,0.040869,0.5,0,0,0
271,'2026/06/11 16:30:29:904',8,0.498214,0.033584,0.013773,0.02395,1,0.034671,0.5,0,0,0
272,'2026/06/11 16:30:29:904',8,0.498214,0.033584,0.013773,0.02395,1,0.034671,0.5,0,0,0
273,'2026/06/11 16:30:30:607',10,0.467554,0.649875,0.259213,0.178927,0.968685,0.074304,0.44,0.62,0.18,0.3
274,'2026/06/11 16:30:30:608',10,0.467554,0.649875,0.259213,0.178927,0.968685,0.074304,0.44,0.62,0.18,0.3
275,'2026/06/11 16:30:30:643',10,0.483364,0.726426,0.276094,0.15601,0.922221,0.080115,0.44,0.62,0.18,0.3
276,'2026/06/11 16:30:30:645',10,0.483364,0.726426,0.276094,0.15601,0.922221,0.080115,0.44,0.62,0.18,0.3
277,'2026/06/11 16:30:30:681',10,0.500523,0.739128,0.263233,0.139043,0.951557,0.077846,0.44,0.62,0.18,0.3
278,'2026/06/11 16:30:30:682',10,0.500523,0.739128,0.263233,0.139043,0.951557,0.077846,0.44,0.62,0.18,0.3
279,'2026/06/11 16:30:30:721',10,0.533516,0.704731,0.237225,0.106137,0.948169,0.10346,0.44,0.62,0.18,0.3
280,'2026/06/11 16:30:30:722',10,0.533516,0.704731,0.237225,0.106137,0.948169,0.10346,0.44,0.62,0.18,0.3
281,'2026/06/11 16:30:30:755',10,0.50833,0.723106,0.221958,0.1316,0.971141,0.097967,0.44,0.62,0.18,0.3
282,'2026/06/11 16:30:30:755',10,0.50833,0.723106,0.221958,0.1316,0.971141,0.097967,0.44,0.62,0.18,0.3
283,'2026/06/11 16:30:30:790',10,0.517899,0.682546,0.20896,0.110551,0.972343,0.056795,0.44,0.62,0.18,0.3
284,'2026/06/11 16:30:30:792',10,0.517899,0.682546,0.20896,0.110551,0.972343,0.056795,0.44,0.62,0.18,0.3
285,'2026/06/11 16:30:30:832',10,0.483885,0.691961,0.204038,0.11163,0.964806,0.076699,0.44,0.62,0.18,0.3
286,'2026/06/11 16:30:30:835',10,0.483885,0.691961,0.204038,0.11163,0.964806,0.076699,0.44,0.62,0.18,0.3
287,'2026/06/11 16:30:30:865',10,0.476017,0.672604,0.182077,0.068721,0.96164,0.100171,0.44,0.62,0.18,0.3
288,'2026/06/11 16:30:30:867',10,0.476017,0.672604,0.182077,0.068721,0.96164,0.100171,0.44,0.62,0.18,0.3
289,'2026/06/11 16:30:30:901',10,0.452886,0.664014,0.125166,0.059318,0.928734,0.081558,0.44,0.62,0.18,0.3
290,'2026/06/11 16:30:30:903',10,0.452886,0.664014,0.125166,0.059318,0.928734,0.081558,0.44,0.62,0.18,0.3
291,'2026/06/11 16:30:30:938',10,0.481627,0.642113,0.103881,0.041189,0.97225,0.085986,0.44,0.62,0.18,0.3
292,'2026/06/11 16:30:30:938',10,0.481627,0.642113,0.103881,0.041189,0.97225,0.085986,0.44,0.62,0.18,0.3
293,'2026/06/11 16:30:30:975',10,0.422638,0.632087,0.094234,0.068675,0.935239,0.067766,0.44,0.62,0.18,0.3
294,'2026/06/11 16:30:30:980',10,0.422638,0.632087,0.094234,0.068675,0.935239,0.067766,0.44,0.62,0.18,0.3
295,'2026/06/11 16:30:31:013',10,0.372228,0.607551,0.145132,0.09073,0.929479,0.077086,0.44,0.62,0.18,0.3
296,'2026/06/11 16:30:31:014',10,0.372228,0.607551,0.145132,0.09073,0.929479,0.077086,0.44,0.62,0.18,0.3
297,'2026/06/11 16:30:31:047',10,0.380301,0.579538,0.130401,0.088276,0.935006,0.097265,0.44,0.62,0.18,0.3
298,'2026/06/11 16:30:31:048',10,0.380301,0.579538,0.130401,0.088276,0.935006,0.097265,0.44,0.62,0.18,0.3
299,'2026/06/11 16:30:31:085',10,0.344197,0.558873,0.128592,0.092297,0.954315,0.083741,0.44,0.62,0.18,0.3
300,'2026/06/11 16:30:31:086',10,0.344197,0.558873,0.128592,0.092297,0.954315,0.083741,0.44,0.62,0.18,0.3
301,'2026/06/11 16:30:31:122',10,0.408129,0.553903,0.176941,0.133904,0.936469,0.083296,0.44,0.62,0.18,0.3
302,'2026/06/11 16:30:31:123',10,0.408129,0.553903,0.176941,0.133904,0.936469,0.083296,0.44,0.62,0.18,0.3
303,'2026/06/11 16:30:31:158',10,0.369496,0.598464,0.128999,0.146735,0.949804,0.100208,0.44,0.62,0.18,0.3
304,'2026/06/11 16:30:31:163',10,0.369496,0.598464,0.128999,0.146735,0.949804,0.100208,0.44,0.62,0.18,0.3
305,'2026/06/11 16:30:31:197',10,0.329795,0.617034,0.18693,0.145556,0.958197,0.086045,0.44,0.62,0.18,0.3
306,'2026/06/11 16:30:31:198',10,0.329795,0.617034,0.18693,0.145556,0.958197,0.086045,0.44,0.62,0.18,0.3
307,'2026/06/11 16:30:31:231',10,0.377392,0.62935,0.2095,0.185613,0.957695,0.10017,0.44,0.62,0.18,0.3
308,'2026/06/11 16:30:31:232',10,0.377392,0.62935,0.2095,0.185613,0.957695,0.10017,0.44,0.62,0.18,0.3
309,'2026/06/11 16:30:31:271',10,0.390092,0.61755,0.211447,0.176811,0.963942,0.059507,0.44,0.62,0.18,0.3
310,'2026/06/11 16:30:31:272',10,0.390092,0.61755,0.211447,0.176811,0.963942,0.059507,0.44,0.62,0.18,0.3
311,'2026/06/11 16:30:31:310',10,0.376755,0.674453,0.206838,0.151898,0.952364,0.103574,0.44,0.62,0.18,0.3
312,'2026/06/11 16:30:31:312',10,0.376755,0.674453,0.206838,0.151898,0.952364,0.103574,0.44,0.62,0.18,0.3
313,'2026/06/11 16:30:31:350',10,0.426053,0.708203,0.262068,0.156348,0.969481,0.079092,0.44,0.62,0.18,0.3
314,'2026/06/11 16:30:31:355',10,0.426053,0.708203,0.262068,0.156348,0.969481,0.079092,0.44,0.62,0.18,0.3
315,'2026/06/11 16:30:31:386',10,0.480908,0.712083,0.231609,0.140112,0.977774,0.062038,0.44,0.62,0.18,0.3
316,'2026/06/11 16:30:31:386',10,0.480908,0.712083,0.231609,0.140112,0.977774,0.062038,0.44,0.62,0.18,0.3
317,'2026/06/11 16:30:31:426',10,0.523256,0.733583,0.256766,0.180292,0.978036,0.095229,0.44,0.62,0.18,0.3
318,'2026/06/11 16:30:31:426',10,0.523256,0.733583,0.256766,0.180292,0.978036,0.095229,0.44,0.62,0.18,0.3
319,'2026/06/11 16:30:31:463',10,0.48616,0.734475,0.199594,0.139082,0.947287,0.088641,0.44,0.62,0.18,0.3
320,'2026/06/11 16:30:31:464',10,0.48616,0.734475,0.199594,0.139082,0.947287,0.088641,0.44,0.62,0.18,0.3
321,'2026/06/11 16:30:31:513',10,0.534306,0.717875,0.243799,0.147143,0.926501,0.066691,0.44,0.62,0.18,0.3
322,'2026/06/11 16:30:31:516',10,0.534306,0.717875,0.243799,0.147143,0.926501,0.066691,0.44,0.62,0.18,0.3
323,'2026/06/11 16:30:31:549',10,0.479966,0.735191,0.209341,0.129412,0.933282,0.058161,0.44,0.62,0.18,0.3
324,'2026/06/11 16:30:31:550',10,0.479966,0.735191,0.209341,0.129412,0.933282,0.058161,0.44,0.62,0.18,0.3
325,'2026/06/11 16:30:31:583',10,0.562186,0.724609,0.172703,0.084193,0.928387,0.102313,0.44,0.62,0.18,0.3
326,'2026/06/11 16:30:31:584',10,0.562186,0.724609,0.172703,0.084193,0.928387,0.102313,0.44,0.62,0.18,0.3
327,'2026/06/11 16:30:31:621',10,0.504304,0.673898,0.139257,0.10092,0.92814,0.077682,0.44,0.62,0.18,0.3
328,'2026/06/11 16:30:31:622',10,0.504304,0.673898,0.139257,0.10092,0.92814,0.077682,0.44,0.62,0.18,0.3
329,'2026/06/11 16:30:31:659',10,0.527261,0.673394,0.180732,0.064718,0.964536,0.062726,0.44,0.62,0.18,0.3
330,'2026/06/11 16:30:31:661',10,0.527261,0.673394,0.180732,0.064718,0.964536,0.062726,0.44,0.62,0.18,0.3
331,'2026/06/11 16:30:31:697',10,0.481579,0.600035,0.133635,0.060588,0.977091,0.056636,0.44,0.62,0.18,0.3
332,'2026/06/11 16:30:31:698',10,0.481579,0.600035,0.133635,0.060588,0.977091,0.056636,0.44,0.62,0.18,0.3
333,'2026/06/11 16:30:31:736',10,0.452409,0.60648,0.154987,0.088921,0.925961,0.089284,0.44,0.62,0.18,0.3
334,'2026/06/11 16:30:31:737',10,0.452409,0.60648,0.154987,0.088921,0.925961,0.089284,0.44,0.62,0.18,0.3
335,'2026/06/11 16:30:31:772',10,0.442733,0.630804,0.107831,0.067803,0.931388,0.061108,0.44,0.62,0.18,0.3
336,'2026/06/11 16:30:31:772',10,0.442733,0.630804,0.107831,0.067803,0.931388,0.061108,0.44,0.62,0.18,0.3
337,'2026/06/11 16:30:31:808',10,0.446178,0.574887,0.129129,0.09298,0.955829,0.056068,0.44,0.62,0.18,0.3
338,'2026/06/11 16:30:31:811',10,0.446178,0.574887,0.129129,0.09298,0.955829,0.056068,0.44,0.62,0.18,0.3
339,'2026/06/11 16:30:31:850',10,0.415779,0.549592,0.097294,0.102188,0.924117,0.093258,0.44,0.62,0.18,0.3
340,'2026/06/11 16:30:31:851',10,0.415779,0.549592,0.097294,0.102188,0.924117,0.093258,0.44,0.62,0.18,0.3
341,'2026/06/11 16:30:32:538',12,0.619002,0.832532,0.870792,0.728708,0.908853,0.168037,0.66,0.8,0.65,0.85
342,'2026/06/11 16:30:32:541',12,0.619002,0.832532,0.870792,0.728708,0.908853,0.168037,0.66,0.8,0.65,0.85
343,'2026/06/11 16:30:32:577',12,0.628191,0.922978,0.784397,0.680527,0.915039,0.117215,0.66,0.8,0.65,0.85
344,'2026/06/11 16:30:32:578',12,0.628191,0.922978,0.784397,0.680527,0.915039,0.117215,0.66,0.8,0.65,0.85
345,'2026/06/11 16:30:32:613',12,0.754655,0.84347,0.759566,0.736718,0.914276,0.127664,0.66,0.8,0.65,0.85
346,'2026/06/11 16:30:32:616',12,0.754655,0.84347,0.759566,0.736718,0.914276,0.127664,0.66,0.8,0.65,0.85
347,'2026/06/11 16:30:32:654',12,0.714174,0.849672,0.828533,0.668289,0.94474,0.138337,0.66,0.8,0.65,0.85
348,'2026/06/11 16:30:32:655',12,0.714174,0.849672,0.828533,0.668289,0.94474,0.138337,0.66,0.8,0.65,0.85
349,'2026/06/11 16:30:32:693',12,0.817186,0.89453,0.727034,0.629902,0.956725,0.108036,0.66,0.8,0.65,0.85
350,'2026/06/11 16:30:32:695',12,0.817186,0.89453,0.727034,0.629902,0.956725,0.108036,0.66,0.8,0.65,0.85
351,'2026/06/11 16:30:32:729',12,0.825509,0.919036,0.745974,0.590351,0.957842,0.109258,0.66,0.8,0.65,0.85
352,'2026/06/11 16:30:32:729',12,0.825509,0.919036,0.745974,0.590351,0.957842,0.109258,0.66,0.8,0.65,0.85
353,'2026/06/11 16:30:32:770',12,0.778918,0.846196,0.733029,0.565934,0.954582,0.110144,0.66,0.8,0.65,0.85
354,'2026/06/11 16:30:32:772',12,0.778918,0.846196,0.733029,0.565934,0.954582,0.110144,0.66,0.8,0.65,0.85
355,'2026/06/11 16:30:32:801',12,0.707952,0.84203,0.626733,0.516969,0.937985,0.143385,0.66,0.8,0.65,0.85
356,'2026/06/11 16:30:32:801',12,0.707952,0.84203,0.626733,0.516969,0.937985,0.143385,0.66,0.8,0.65,0.85
357,'2026/06/11 16:30:32:839',12,0.717128,0.854852,0.654462,0.528776,0.936326,0.111942,0.66,0.8,0.65,0.85
358,'2026/06/11 16:30:32:840',12,0.717128,0.854852,0.654462,0.528776,0.936326,0.111942,0.66,0.8,0.65,0.85
359,'2026/06/11 16:30:32:875',12,0.737297,0.809536,0.647222,0.568943,0.94325,0.120052,0.66,0.8,0.65,0.85
360,'2026/06/11 16:30:32:875',12,0.737297,0.809536,0.647222,0.568943,0.94325,0.120052,0.66,0.8,0.65,0.85
361,'2026/06/11 16:30:32:913',12,0.665195,0.713843,0.59647,0.537802,0.924959,0.111656,0.66,0.8,0.65,0.85
362,'2026/06/11 16:30:32:914',12,0.665195,0.713843,0.59647,0.537802,0.924959,0.111656,0.66,0.8,0.65,0.85
363,'2026/06/11 16:30:32:948',12,0.62355,0.740035,0.596997,0.518335,0.955379,0.109699,0.66,0.8,0.65,0.85
364,'2026/06/11 16:30:32:949',12,0.62355,0.740035,0.596997,0.518335,0.955379,0.109699,0.66,0.8,0.65,0.85
365,'2026/06/11 16:30:32:984',12,0.64449,0.662488,0.569889,0.622147,0.948706,0.143946,0.66,0.8,0.65,0.85
366,'2026/06/11 16:30:32:984',12,0.64449,0.662488,0.569889,0.622147,0.948706,0.143946,0.66,0.8,0.65,0.85
367,'2026/06/11 16:30:33:021',12,0.580091,0.707909,0.613445,0.575029,0.921216,0.151574,0.66,0.8,0.65,0.85
368,'2026/06/11 16:30:33:022',12,0.580091,0.707909,0.613445,0.575029,0.921216,0.151574,0.66,0.8,0.65,0.85
369,'2026/06/11 16:30:33:057',12,0.581443,0.744631,0.683931,0.720448,0.936025,0.129615,0.66,0.8,0.65,0.85
370,'2026/06/11 16:30:33:058',12,0.581443,0.744631,0.683931,0.720448,0.936025,0.129615,0.66,0.8,0.65,0.85
371,'2026/06/11 16:30:33:095',12,0.546191,0.684376,0.705492,0.658244,0.906493,0.164176,0.66,0.8,0.65,0.85
372,'2026/06/11 16:30:33:095',12,0.546191,0.684376,0.705492,0.658244,0.906493,0.164176,0.66,0.8,0.65,0.85
373,'2026/06/11 16:30:33:130',12,0.517105,0.764433,0.727925,0.764508,0.950709,0.173218,0.66,0.8,0.65,0.85
374,'2026/06/11 16:30:33:131',12,0.517105,0.764433,0.727925,0.764508,0.950709,0.173218,0.66,0.8,0.65,0.85
375,'2026/06/11 16:30:33:166',12,0.592042,0.773547,0.768594,0.686591,0.955745,0.163062,0.66,0.8,0.65,0.85
376,'2026/06/11 16:30:33:167',12,0.592042,0.773547,0.768594,0.686591,0.955745,0.163062,0.66,0.8,0.65,0.85
377,'2026/06/11 16:30:33:203',12,0.537084,0.754994,0.805334,0.737914,0.920389,0.105427,0.66,0.8,0.65,0.85
378,'2026/06/11 16:30:33:204',12,0.537084,0.754994,0.805334,0.737914,0.920389,0.105427,0.66,0.8,0.65,0.85
379,'2026/06/11 16:30:33:237',12,0.651922,0.827445,0.793025,0.720375,0.93799,0.107146,0.66,0.8,0.65,0.85
380,'2026/06/11 16:30:33:238',12,0.651922,0.827445,0.793025,0.720375,0.93799,0.107146,0.66,0.8,0.65,0.85
381,'2026/06/11 16:30:33:272',12,0.67061,0.81696,0.811411,0.739665,0.922203,0.155512,0.66,0.8,0.65,0.85
382,'2026/06/11 16:30:33:272',12,0.67061,0.81696,0.811411,0.739665,0.922203,0.155512,0.66,0.8,0.65,0.85
383,'2026/06/11 16:30:33:309',12,0.71312,0.879429,0.778022,0.685443,0.909445,0.148249,0.66,0.8,0.65,0.85
384,'2026/06/11 16:30:33:319',12,0.71312,0.879429,0.778022,0.685443,0.909445,0.148249,0.66,0.8,0.65,0.85
385,'2026/06/11 16:30:33:347',12,0.735604,0.863993,0.844126,0.716375,0.926523,0.124122,0.66,0.8,0.65,0.85
386,'2026/06/11 16:30:33:350',12,0.735604,0.863993,0.844126,0.716375,0.926523,0.124122,0.66,0.8,0.65,0.85
387,'2026/06/11 16:30:33:381',12,0.779107,0.855448,0.803508,0.658412,0.940709,0.139064,0.66,0.8,0.65,0.85
388,'2026/06/11 16:30:33:381',12,0.779107,0.855448,0.803508,0.658412,0.940709,0.139064,0.66,0.8,0.65,0.85
389,'2026/06/11 16:30:33:418',12,0.791299,0.847773,0.778111,0.664484,0.900461,0.126099,0.66,0.8,0.65,0.85
390,'2026/06/11 16:30:33:418',12,0.791299,0.847773,0.778111,0.664484,0.900461,0.126099,0.66,0.8,0.65,0.85
391,'2026/06/11 16:30:33:456',12,0.742021,0.848717,0.733593,0.594065,0.900464,0.157291,0.66,0.8,0.65,0.85
392,'2026/06/11 16:30:33:456',12,0.742021,0.848717,0.733593,0.594065,0.900464,0.157291,0.66,0.8,0.65,0.85
393,'2026/06/11 16:30:33:493',12,0.740318,0.858127,0.755669,0.584373,0.950001,0.161434,0.66,0.8,0.65,0.85
394,'2026/06/11 16:30:33:494',12,0.740318,0.858127,0.755669,0.584373,0.950001,0.161434,0.66,0.8,0.65,0.85
395,'2026/06/11 16:30:33:528',12,0.717505,0.887215,0.643569,0.495752,0.95527,0.165348,0.66,0.8,0.65,0.85
396,'2026/06/11 16:30:33:529',12,0.717505,0.887215,0.643569,0.495752,0.95527,0.165348,0.66,0.8,0.65,0.85
397,'2026/06/11 16:30:33:567',12,0.768903,0.827245,0.692877,0.530036,0.90691,0.10646,0.66,0.8,0.65,0.85
398,'2026/06/11 16:30:33:568',12,0.768903,0.827245,0.692877,0.530036,0.90691,0.10646,0.66,0.8,0.65,0.85
399,'2026/06/11 16:30:33:601',12,0.705594,0.822301,0.65597,0.576381,0.955186,0.111169,0.66,0.8,0.65,0.85
400,'2026/06/11 16:30:33:602',12,0.705594,0.822301,0.65597,0.576381,0.955186,0.111169,0.66,0.8,0.65,0.85
401,'2026/06/11 16:30:33:636',12,0.743726,0.731903,0.633719,0.53957,0.923746,0.126719,0.66,0.8,0.65,0.85
402,'2026/06/11 16:30:33:636',12,0.743726,0.731903,0.633719,0.53957,0.923746,0.126719,0.66,0.8,0.65,0.85
403,'2026/06/11 16:30:33:678',12,0.635133,0.71643,0.573417,0.55151,0.906842,0.140697,0.66,0.8,0.65,0.85
404,'2026/06/11 16:30:33:678',12,0.635133,0.71643,0.573417,0.55151,0.906842,0.140697,0.66,0.8,0.65,0.85
405,'2026/06/11 16:30:33:716',12,0.676754,0.698883,0.640545,0.614499,0.948902,0.121539,0.66,0.8,0.65,0.85
406,'2026/06/11 16:30:33:718',12,0.676754,0.698883,0.640545,0.614499,0.948902,0.121539,0.66,0.8,0.65,0.85
407,'2026/06/11 16:30:33:751',12,0.536441,0.670596,0.635396,0.63684,0.939331,0.1174,0.66,0.8,0.65,0.85
408,'2026/06/11 16:30:33:752',12,0.536441,0.670596,0.635396,0.63684,0.939331,0.1174,0.66,0.8,0.65,0.85
409,'2026/06/11 16:30:34:452',14,0.585484,0.494783,0.693924,0.728824,0.541825,0.804831,0.5,0.35,0.15,0.15
410,'2026/06/11 16:30:34:453',14,0.585484,0.494783,0.693924,0.728824,0.541825,0.804831,0.5,0.35,0.15,0.15
411,'2026/06/11 16:30:34:486',14,0.600267,0.558974,0.663953,0.712579,0.570355,0.650191,0.5,0.35,0.15,0.15
412,'2026/06/11 16:30:34:487',14,0.600267,0.558974,0.663953,0.712579,0.570355,0.650191,0.5,0.35,0.15,0.15
413,'2026/06/11 16:30:34:525',14,0.54,0.542321,0.568243,0.51642,0.478988,0.721467,0.5,0.35,0.15,0.15
414,'2026/06/11 16:30:34:525',14,0.54,0.542321,0.568243,0.51642,0.478988,0.721467,0.5,0.35,0.15,0.15
415,'2026/06/11 16:30:34:559',14,0.645549,0.550215,0.472707,0.58711,0.482277,0.79285,0.5,0.35,0.15,0.15
416,'2026/06/11 16:30:34:559',14,0.645549,0.550215,0.472707,0.58711,0.482277,0.79285,0.5,0.35,0.15,0.15
417,'2026/06/11 16:30:34:594',14,0.808009,0.572227,0.529591,0.433026,0.558691,0.778364,0.5,0.35,0.15,0.15
418,'2026/06/11 16:30:34:595',14,0.808009,0.572227,0.529591,0.433026,0.558691,0.778364,0.5,0.35,0.15,0.15
419,'2026/06/11 16:30:34:632',14,0.830766,0.51298,0.541155,0.41639,0.521444,0.715126,0.5,0.35,0.15,0.15
420,'2026/06/11 16:30:34:632',14,0.830766,0.51298,0.541155,0.41639,0.521444,0.715126,0.5,0.35,0.15,0.15
421,'2026/06/11 16:30:34:669',14,0.64511,0.396044,0.306235,0.422926,0.52495,0.762863,0.5,0.35,0.15,0.15
422,'2026/06/11 16:30:34:669',14,0.64511,0.396044,0.306235,0.422926,0.52495,0.762863,0.5,0.35,0.15,0.15
423,'2026/06/11 16:30:34:703',14,0.703906,0.369271,0.277162,0.273463,0.540307,0.72455,0.5,0.35,0.15,0.15
424,'2026/06/11 16:30:34:703',14,0.703906,0.369271,0.277162,0.273463,0.540307,0.72455,0.5,0.35,0.15,0.15
425,'2026/06/11 16:30:34:738',14,0.577989,0.355377,0.229485,0.245414,0.524139,0.739577,0.5,0.35,0.15,0.15
426,'2026/06/11 16:30:34:739',14,0.577989,0.355377,0.229485,0.245414,0.524139,0.739577,0.5,0.35,0.15,0.15
427,'2026/06/11 16:30:34:774',14,0.673497,0.35624,0.134042,0.168486,0.578541,0.676829,0.5,0.35,0.15,0.15
428,'2026/06/11 16:30:34:775',14,0.673497,0.35624,0.134042,0.168486,0.578541,0.676829,0.5,0.35,0.15,0.15
429,'2026/06/11 16:30:34:809',14,0.594228,0.308965,0.309119,0.373613,0.523338,0.736548,0.5,0.35,0.15,0.15
430,'2026/06/11 16:30:34:809',14,0.594228,0.308965,0.309119,0.373613,0.523338,0.736548,0.5,0.35,0.15,0.15
431,'2026/06/11 16:30:34:845',14,0.389034,0.207915,0.316408,0.367929,0.532713,0.739008,0.5,0.35,0.15,0.15
432,'2026/06/11 16:30:34:845',14,0.389034,0.207915,0.316408,0.367929,0.532713,0.739008,0.5,0.35,0.15,0.15
433,'2026/06/11 16:30:34:883',14,0.518906,0.173248,0.187006,0.441267,0.60011,0.754023,0.5,0.35,0.15,0.15
434,'2026/06/11 16:30:34:884',14,0.518906,0.173248,0.187006,0.441267,0.60011,0.754023,0.5,0.35,0.15,0.15
435,'2026/06/11 16:30:34:917',14,0.441212,0.247999,0.292274,0.438591,0.573364,0.704681,0.5,0.35,0.15,0.15
436,'2026/06/11 16:30:34:917',14,0.441212,0.247999,0.292274,0.438591,0.573364,0.704681,0.5,0.35,0.15,0.15
437,'2026/06/11 16:30:34:956',14,0.292102,0.17823,0.21807,0.429048,0.621627,0.717254,0.5,0.35,0.15,0.15
438,'2026/06/11 16:30:34:956',14,0.292102,0.17823,0.21807,0.429048,0.621627,0.717254,0.5,0.35,0.15,0.15
439,'2026/06/11 16:30:34:994',14,0.240569,0.15474,0.251888,0.644065,0.486183,0.774175,0.5,0.35,0.15,0.15
440,'2026/06/11 16:30:34:995',14,0.240569,0.15474,0.251888,0.644065,0.486183,0.774175,0.5,0.35,0.15,0.15
441,'2026/06/11 16:30:35:037',14,0.387251,0.339549,0.307125,0.578489,0.592609,0.64621,0.5,0.35,0.15,0.15
442,'2026/06/11 16:30:35:038',14,0.387251,0.339549,0.307125,0.578489,0.592609,0.64621,0.5,0.35,0.15,0.15
443,'2026/06/11 16:30:35:074',14,0.297491,0.241639,0.562464,0.726316,0.599447,0.653108,0.5,0.35,0.15,0.15
444,'2026/06/11 16:30:35:074',14,0.297491,0.241639,0.562464,0.726316,0.599447,0.653108,0.5,0.35,0.15,0.15
445,'2026/06/11 16:30:35:111',14,0.350141,0.344259,0.584347,0.625154,0.541072,0.676986,0.5,0.35,0.15,0.15
446,'2026/06/11 16:30:35:111',14,0.350141,0.344259,0.584347,0.625154,0.541072,0.676986,0.5,0.35,0.15,0.15
447,'2026/06/11 16:30:35:147',14,0.477035,0.406421,0.598025,0.650146,0.59938,0.713803,0.5,0.35,0.15,0.15
448,'2026/06/11 16:30:35:148',14,0.477035,0.406421,0.598025,0.650146,0.59938,0.713803,0.5,0.35,0.15,0.15
449,'2026/06/11 16:30:35:186',14,0.559549,0.441377,0.729374,0.799987,0.543869,0.676354,0.5,0.35,0.15,0.15
450,'2026/06/11 16:30:35:187',14,0.559549,0.441377,0.729374,0.799987,0.543869,0.676354,0.5,0.35,0.15,0.15
451,'2026/06/11 16:30:35:219',14,0.516272,0.516389,0.747559,0.728861,0.598201,0.64768,0.5,0.35,0.15,0.15
452,'2026/06/11 16:30:35:219',14,0.516272,0.516389,0.747559,0.728861,0.598201,0.64768,0.5,0.35,0.15,0.15
453,'2026/06/11 16:30:35:259',14,0.547856,0.570166,0.719175,0.61907,0.486414,0.789178,0.5,0.35,0.15,0.15
454,'2026/06/11 16:30:35:259',14,0.547856,0.570166,0.719175,0.61907,0.486414,0.789178,0.5,0.35,0.15,0.15
455,'2026/06/11 16:30:35:294',14,0.747277,0.515064,0.666985,0.493021,0.614849,0.64947,0.5,0.35,0.15,0.15
456,'2026/06/11 16:30:35:294',14,0.747277,0.515064,0.666985,0.493021,0.614849,0.64947,0.5,0.35,0.15,0.15
457,'2026/06/11 16:30:35:330',14,0.689965,0.647059,0.494647,0.471173,0.525934,0.625334,0.5,0.35,0.15,0.15
458,'2026/06/11 16:30:35:332',14,0.689965,0.647059,0.494647,0.471173,0.525934,0.625334,0.5,0.35,0.15,0.15
459,'2026/06/11 16:30:35:366',14,0.622693,0.541531,0.442448,0.536671,0.529986,0.625638,0.5,0.35,0.15,0.15
460,'2026/06/11 16:30:35:370',14,0.622693,0.541531,0.442448,0.536671,0.529986,0.625638,0.5,0.35,0.15,0.15
461,'2026/06/11 16:30:35:404',14,0.838919,0.577479,0.478448,0.428711,0.492016,0.677376,0.5,0.35,0.15,0.15
462,'2026/06/11 16:30:35:404',14,0.838919,0.577479,0.478448,0.428711,0.492016,0.677376,0.5,0.35,0.15,0.15
463,'2026/06/11 16:30:35:442',14,0.800425,0.505435,0.290295,0.360065,0.541776,0.62105,0.5,0.35,0.15,0.15
464,'2026/06/11 16:30:35:443',14,0.800425,0.505435,0.290295,0.360065,0.541776,0.62105,0.5,0.35,0.15,0.15
465,'2026/06/11 16:30:35:479',14,0.587523,0.366041,0.395866,0.289994,0.586358,0.725554,0.5,0.35,0.15,0.15
466,'2026/06/11 16:30:35:479',14,0.587523,0.366041,0.395866,0.289994,0.586358,0.725554,0.5,0.35,0.15,0.15
467,'2026/06/11 16:30:35:516',14,0.546902,0.317903,0.215866,0.155862,0.537172,0.77878,0.5,0.35,0.15,0.15
468,'2026/06/11 16:30:35:517',14,0.546902,0.317903,0.215866,0.155862,0.537172,0.77878,0.5,0.35,0.15,0.15
469,'2026/06/11 16:30:35:553',14,0.570562,0.229696,0.323344,0.293595,0.47263,0.723075,0.5,0.35,0.15,0.15
470,'2026/06/11 16:30:35:553',14,0.570562,0.229696,0.323344,0.293595,0.47263,0.723075,0.5,0.35,0.15,0.15
471,'2026/06/11 16:30:35:591',14,0.453953,0.190156,0.1895,0.323211,0.50849,0.703314,0.5,0.35,0.15,0.15
472,'2026/06/11 16:30:35:592',14,0.453953,0.190156,0.1895,0.323211,0.50849,0.703314,0.5,0.35,0.15,0.15
473,'2026/06/11 16:30:35:627',14,0.490749,0.143398,0.320436,0.234155,0.55417,0.721466,0.5,0.35,0.15,0.15
474,'2026/06/11 16:30:35:627',14,0.490749,0.143398,0.320436,0.234155,0.55417,0.721466,0.5,0.35,0.15,0.15
475,'2026/06/11 16:30:35:662',14,0.510238,0.216096,0.199925,0.386085,0.571707,0.816208,0.5,0.35,0.15,0.15
476,'2026/06/11 16:30:35:663',14,0.510238,0.216096,0.199925,0.386085,0.571707,0.816208,0.5,0.35,0.15,0.15
477,'2026/06/11 16:30:36:366',16,0.660584,0.753445,0.721051,0.594603,0.933976,0.168978,0.7,0.74,0.8,0.7
478,'2026/06/11 16:30:36:367',16,0.660584,0.753445,0.721051,0.594603,0.933976,0.168978,0.7,0.74,0.8,0.7
479,'2026/06/11 16:30:36:405',16,0.786633,0.879266,0.666936,0.5379,0.922761,0.181946,0.7,0.74,0.8,0.7
480,'2026/06/11 16:30:36:405',16,0.786633,0.879266,0.666936,0.5379,0.922761,0.181946,0.7,0.74,0.8,0.7
481,'2026/06/11 16:30:36:445',16,0.730422,0.900796,0.673538,0.588696,0.927904,0.181805,0.7,0.74,0.8,0.7
482,'2026/06/11 16:30:36:445',16,0.730422,0.900796,0.673538,0.588696,0.927904,0.181805,0.7,0.74,0.8,0.7
483,'2026/06/11 16:30:36:479',16,0.74413,0.90455,0.654448,0.508965,0.892628,0.138963,0.7,0.74,0.8,0.7
484,'2026/06/11 16:30:36:479',16,0.74413,0.90455,0.654448,0.508965,0.892628,0.138963,0.7,0.74,0.8,0.7
485,'2026/06/11 16:30:36:516',16,0.761864,0.919129,0.635793,0.559682,0.922582,0.142732,0.7,0.74,0.8,0.7
486,'2026/06/11 16:30:36:517',16,0.761864,0.919129,0.635793,0.559682,0.922582,0.142732,0.7,0.74,0.8,0.7
487,'2026/06/11 16:30:36:555',16,0.884363,0.796878,0.586237,0.503675,0.941948,0.148235,0.7,0.74,0.8,0.7
488,'2026/06/11 16:30:36:559',16,0.884363,0.796878,0.586237,0.503675,0.941948,0.148235,0.7,0.74,0.8,0.7
489,'2026/06/11 16:30:36:593',16,0.779185,0.794091,0.617436,0.472765,0.943678,0.152065,0.7,0.74,0.8,0.7
490,'2026/06/11 16:30:36:594',16,0.779185,0.794091,0.617436,0.472765,0.943678,0.152065,0.7,0.74,0.8,0.7
491,'2026/06/11 16:30:36:630',16,0.897672,0.7778,0.538554,0.475118,0.921157,0.18108,0.7,0.74,0.8,0.7
492,'2026/06/11 16:30:36:632',16,0.897672,0.7778,0.538554,0.475118,0.921157,0.18108,0.7,0.74,0.8,0.7
493,'2026/06/11 16:30:36:669',16,0.829593,0.681614,0.52309,0.452336,0.922728,0.147485,0.7,0.74,0.8,0.7
494,'2026/06/11 16:30:36:669',16,0.829593,0.681614,0.52309,0.452336,0.922728,0.147485,0.7,0.74,0.8,0.7
495,'2026/06/11 16:30:36:706',16,0.688866,0.725274,0.465891,0.425217,0.915567,0.173284,0.7,0.74,0.8,0.7
496,'2026/06/11 16:30:36:706',16,0.688866,0.725274,0.465891,0.425217,0.915567,0.173284,0.7,0.74,0.8,0.7
497,'2026/06/11 16:30:36:741',16,0.689936,0.604286,0.520203,0.40432,0.949889,0.144219,0.7,0.74,0.8,0.7
498,'2026/06/11 16:30:36:741',16,0.689936,0.604286,0.520203,0.40432,0.949889,0.144219,0.7,0.74,0.8,0.7
499,'2026/06/11 16:30:36:778',16,0.746865,0.703273,0.421086,0.456648,0.911799,0.181077,0.7,0.74,0.8,0.7
500,'2026/06/11 16:30:36:779',16,0.746865,0.703273,0.421086,0.456648,0.911799,0.181077,0.7,0.74,0.8,0.7
501,'2026/06/11 16:30:36:817',16,0.657896,0.685322,0.435435,0.478543,0.936879,0.127436,0.7,0.74,0.8,0.7
502,'2026/06/11 16:30:36:817',16,0.657896,0.685322,0.435435,0.478543,0.936879,0.127436,0.7,0.74,0.8,0.7
503,'2026/06/11 16:30:36:855',16,0.525598,0.653163,0.477847,0.482071,0.924035,0.167357,0.7,0.74,0.8,0.7
504,'2026/06/11 16:30:36:856',16,0.525598,0.653163,0.477847,0.482071,0.924035,0.167357,0.7,0.74,0.8,0.7
505,'2026/06/11 16:30:36:894',16,0.598826,0.680833,0.502045,0.560391,0.924435,0.162062,0.7,0.74,0.8,0.7
506,'2026/06/11 16:30:36:894',16,0.598826,0.680833,0.502045,0.560391,0.924435,0.162062,0.7,0.74,0.8,0.7
507,'2026/06/11 16:30:36:932',16,0.541151,0.653997,0.516637,0.514315,0.934141,0.159933,0.7,0.74,0.8,0.7
508,'2026/06/11 16:30:36:932',16,0.541151,0.653997,0.516637,0.514315,0.934141,0.159933,0.7,0.74,0.8,0.7
509,'2026/06/11 16:30:36:967',16,0.5398,0.666603,0.550446,0.560068,0.916776,0.194746,0.7,0.74,0.8,0.7
510,'2026/06/11 16:30:36:968',16,0.5398,0.666603,0.550446,0.560068,0.916776,0.194746,0.7,0.74,0.8,0.7
511,'2026/06/11 16:30:37:008',16,0.537078,0.74874,0.610414,0.565343,0.94117,0.156643,0.7,0.74,0.8,0.7
512,'2026/06/11 16:30:37:010',16,0.537078,0.74874,0.610414,0.565343,0.94117,0.156643,0.7,0.74,0.8,0.7
513,'2026/06/11 16:30:37:045',16,0.660522,0.719777,0.591545,0.645905,0.940731,0.147371,0.7,0.74,0.8,0.7
514,'2026/06/11 16:30:37:047',16,0.660522,0.719777,0.591545,0.645905,0.940731,0.147371,0.7,0.74,0.8,0.7
515,'2026/06/11 16:30:37:080',16,0.607179,0.704736,0.669992,0.674897,0.941082,0.174827,0.7,0.74,0.8,0.7
516,'2026/06/11 16:30:37:082',16,0.607179,0.704736,0.669992,0.674897,0.941082,0.174827,0.7,0.74,0.8,0.7
517,'2026/06/11 16:30:37:116',16,0.74112,0.820744,0.716275,0.622911,0.897282,0.139069,0.7,0.74,0.8,0.7
518,'2026/06/11 16:30:37:116',16,0.74112,0.820744,0.716275,0.622911,0.897282,0.139069,0.7,0.74,0.8,0.7
519,'2026/06/11 16:30:37:151',16,0.658635,0.87228,0.630981,0.612886,0.912135,0.181256,0.7,0.74,0.8,0.7
520,'2026/06/11 16:30:37:152',16,0.658635,0.87228,0.630981,0.612886,0.912135,0.181256,0.7,0.74,0.8,0.7
521,'2026/06/11 16:30:37:197',16,0.766834,0.869024,0.635039,0.560105,0.949976,0.175321,0.7,0.74,0.8,0.7
522,'2026/06/11 16:30:37:199',16,0.766834,0.869024,0.635039,0.560105,0.949976,0.175321,0.7,0.74,0.8,0.7
523,'2026/06/11 16:30:37:227',16,0.799443,0.902319,0.710719,0.502626,0.948343,0.169964,0.7,0.74,0.8,0.7
524,'2026/06/11 16:30:37:228',16,0.799443,0.902319,0.710719,0.502626,0.948343,0.169964,0.7,0.74,0.8,0.7
525,'2026/06/11 16:30:37:267',16,0.81531,0.889658,0.632021,0.566806,0.936816,0.169786,0.7,0.74,0.8,0.7
526,'2026/06/11 16:30:37:268',16,0.81531,0.889658,0.632021,0.566806,0.936816,0.169786,0.7,0.74,0.8,0.7
527,'2026/06/11 16:30:37:301',16,0.789055,0.918068,0.614845,0.538278,0.893325,0.133691,0.7,0.74,0.8,0.7
528,'2026/06/11 16:30:37:301',16,0.789055,0.918068,0.614845,0.538278,0.893325,0.133691,0.7,0.74,0.8,0.7
529,'2026/06/11 16:30:37:339',16,0.788163,0.783803,0.569948,0.484509,0.910761,0.190863,0.7,0.74,0.8,0.7
530,'2026/06/11 16:30:37:340',16,0.788163,0.783803,0.569948,0.484509,0.910761,0.190863,0.7,0.74,0.8,0.7
531,'2026/06/11 16:30:37:377',16,0.897377,0.848785,0.528565,0.451575,0.92305,0.133762,0.7,0.74,0.8,0.7
532,'2026/06/11 16:30:37:384',16,0.897377,0.848785,0.528565,0.451575,0.92305,0.133762,0.7,0.74,0.8,0.7
533,'2026/06/11 16:30:37:414',16,0.780791,0.769086,0.528046,0.379377,0.946496,0.135794,0.7,0.74,0.8,0.7
534,'2026/06/11 16:30:37:414',16,0.780791,0.769086,0.528046,0.379377,0.946496,0.135794,0.7,0.74,0.8,0.7
535,'2026/06/11 16:30:37:453',16,0.805542,0.757086,0.514411,0.453305,0.923817,0.182767,0.7,0.74,0.8,0.7
536,'2026/06/11 16:30:37:453',16,0.805542,0.757086,0.514411,0.453305,0.923817,0.182767,0.7,0.74,0.8,0.7
537,'2026/06/11 16:30:37:488',16,0.665109,0.625632,0.500029,0.424401,0.929068,0.178687,0.7,0.74,0.8,0.7
538,'2026/06/11 16:30:37:488',16,0.665109,0.625632,0.500029,0.424401,0.929068,0.178687,0.7,0.74,0.8,0.7
539,'2026/06/11 16:30:37:526',16,0.683912,0.676467,0.473006,0.443088,0.90738,0.191966,0.7,0.74,0.8,0.7
540,'2026/06/11 16:30:37:528',16,0.683912,0.676467,0.473006,0.443088,0.90738,0.191966,0.7,0.74,0.8,0.7
541,'2026/06/11 16:30:37:562',16,0.651471,0.675049,0.495459,0.424648,0.894378,0.129194,0.7,0.74,0.8,0.7
542,'2026/06/11 16:30:37:563',16,0.651471,0.675049,0.495459,0.424648,0.894378,0.129194,0.7,0.74,0.8,0.7
543,'2026/06/11 16:30:37:600',16,0.605696,0.615481,0.447591,0.489425,0.908755,0.175285,0.7,0.74,0.8,0.7
544,'2026/06/11 16:30:37:601',16,0.605696,0.615481,0.447591,0.489425,0.908755,0.175285,0.7,0.74,0.8,0.7
